MINIMIZE
  obj: +64449 x1 +26552 x2 +73367 x3
Subject To
  ie0: +31 x1 +24 x2 +78 x3 >= -12
  ie1: +63 x1 +17 x2 +35 x3 >= -51
  ie2: +99 x1 +19 x2 +34 x3 >= -23
BOUNDS
  x1 free
  x2 free
  x3 free
END
